; Options: -in -smt2
(set-option :produce-unsat-assumptions true)

(declare-fun start!1721 () Bool)

(assert start!1721)

(declare-fun i!179 () (_ BitVec 32))

(declare-fun e!5036 () Bool)

(declare-fun b!8960 () Bool)

(declare-fun lt!4502 () (_ BitVec 32))

(declare-fun lt!4501 () (_ BitVec 32))

(declare-fun jz!32 () (_ BitVec 32))

(assert (=> b!8960 (= e!5036 (and (bvsle i!179 (bvadd lt!4502 jz!32)) (let ((lhs!51 (bvsub lt!4501 lt!4502))) (and (= (bvand lhs!51 #b10000000000000000000000000000000) (bvand i!179 #b10000000000000000000000000000000)) (not (= (bvand lhs!51 #b10000000000000000000000000000000) (bvand (bvadd lhs!51 i!179) #b10000000000000000000000000000000)))))))))

(declare-fun res!7349 () Bool)

(declare-fun e!5037 () Bool)

(assert (=> start!1721 (=> (not res!7349) (not e!5037))))

(declare-fun e!15 () (_ BitVec 32))

(assert (=> start!1721 (= res!7349 (and (bvsle #b00000000000000000000000000000000 jz!32) (bvsle jz!32 #b00000000000000000000000000001111) (bvsle #b00000000000000000000000000011000 e!15) (bvsle e!15 #b00000000000000000000001111110000) (= (bvsrem e!15 #b00000000000000000000000000011000) #b00000000000000000000000000000000)))))

(assert (=> start!1721 e!5037))

(assert (=> start!1721 true))

(declare-datatypes ((array!699 0))(
  ( (array!700 (arr!308 (Array (_ BitVec 32) (_ FloatingPoint 11 53))) (size!308 (_ BitVec 32))) )
))
(declare-fun xx!44 () array!699)

(declare-fun array_inv!258 (array!699) Bool)

(assert (=> start!1721 (array_inv!258 xx!44)))

(declare-fun f!58 () array!699)

(assert (=> start!1721 (array_inv!258 f!58)))

(declare-fun b!8957 () Bool)

(declare-fun res!7348 () Bool)

(assert (=> b!8957 (=> (not res!7348) (not e!5037))))

(declare-fun xxInv!0 (array!699) Bool)

(assert (=> b!8957 (= res!7348 (xxInv!0 xx!44))))

(declare-fun b!8959 () Bool)

(declare-fun res!7351 () Bool)

(assert (=> b!8959 (=> (not res!7351) (not e!5036))))

(declare-fun fInv!0 (array!699) Bool)

(assert (=> b!8959 (= res!7351 (fInv!0 f!58))))

(declare-fun b!8958 () Bool)

(assert (=> b!8958 (= e!5037 e!5036)))

(declare-fun res!7350 () Bool)

(assert (=> b!8958 (=> (not res!7350) (not e!5036))))

(assert (=> b!8958 (= res!7350 (and (= (bvsub e!15 (bvmul #b00000000000000000000000000011000 (bvadd lt!4501 #b00000000000000000000000000000001))) #b00000000000000000000000000000000) (bvsle #b00000000000000000000000000000000 i!179) (bvsle i!179 (bvadd lt!4502 jz!32 #b00000000000000000000000000000001))))))

(declare-fun lt!4503 () (_ BitVec 32))

(assert (=> b!8958 (= lt!4501 (ite (bvslt lt!4503 #b00000000000000000000000000000000) #b00000000000000000000000000000000 lt!4503))))

(assert (=> b!8958 (= lt!4503 (bvsdiv (bvsub e!15 #b00000000000000000000000000000011) #b00000000000000000000000000011000))))

(assert (=> b!8958 (= lt!4502 (bvsub (size!308 xx!44) #b00000000000000000000000000000001))))

(assert (= (and start!1721 res!7349) b!8957))

(assert (= (and b!8957 res!7348) b!8958))

(assert (= (and b!8958 res!7350) b!8959))

(assert (= (and b!8959 res!7351) b!8960))

(declare-fun m!13403 () Bool)

(assert (=> start!1721 m!13403))

(declare-fun m!13405 () Bool)

(assert (=> start!1721 m!13405))

(declare-fun m!13407 () Bool)

(assert (=> b!8957 m!13407))

(declare-fun m!13409 () Bool)

(assert (=> b!8959 m!13409))

(check-sat (not start!1721) (not b!8957) (not b!8959))
(check-sat)
